DIMENSION: 12
EDGE_WEIGHT_TYPE: EXPLICIT
EDGE_WEIGHT_FORMAT: FULL_MATRIX
EDGE_WEIGHT_SECTION:
32767 32767 32767 40 32767 32767 11 65 32767 89 90 54 
32767 32767 32767 71 32767 32767 32767 32767 32767 9 32767 32767 
32767 32767 32767 32767 14 32767 53 41 32767 6 32767 32767 
40 71 32767 32767 32767 32767 32767 18 17 5 33 32767 
32767 32767 14 32767 32767 32767 32767 24 32767 32767 65 68 
32767 32767 32767 32767 32767 32767 32767 32767 32767 24 32767 32767 
11 32767 53 32767 32767 32767 32767 32767 32767 32767 32767 32767 
65 32767 41 18 24 32767 32767 32767 32767 32767 11 32767 
32767 32767 32767 17 32767 32767 32767 32767 32767 32767 32767 32767 
89 9 6 5 32767 24 32767 32767 32767 32767 32767 32767 
90 32767 32767 33 65 32767 32767 11 32767 32767 32767 31 
54 32767 32767 32767 68 32767 32767 32767 32767 32767 31 32767 
EOF